
(set-logic ALL) 

(declare-datatype MyList ((Nil) (Cons (head Real) (tail MyList)) )) 
(declare-fun l0 () MyList) 
(declare-fun l1 () MyList) 
(declare-fun l2 () MyList) 
(declare-fun l3 () MyList) 
(declare-fun i0 () Real) 
(declare-fun i1 () Real) 
(assert (= l1 l0) )
(assert (is-Nil Nil) )
(assert (is-Nil Nil) )
(assert (= l3 Nil) )
(assert (and (= l1 l1) (= l3 Nil)) )
(assert (not (is-Nil Nil)) )
(assert (and (is-Nil Nil) (is-Cons Nil)) )
(assert (not (= l0 l1)) )
(check-sat)
